8790
20, 50, 16, 46, 25, 12, 11, 52, 13, 14, 26, 47, 27, 28, 51, 33, 4, 6, 38, 40, 39, 36, 35, 49, 32, 45, 19, 8, 41, 9, 10, 43, 15, 5, 24, 48, 37, 34, 44, 1, 22, 31, 18, 3, 17, 21, 42, 2, 7, 30, 29, 23
